solution status: optimal solution found
objective value:                                   26
x39                                                 1 	(obj:1)
x43                                                 1 	(obj:1)
x47                                                 1 	(obj:1)
x49                                                 1 	(obj:1)
x57                                                 1 	(obj:1)
x59                                                 1 	(obj:1)
x60                                                 1 	(obj:1)
x67                                                 1 	(obj:1)
x69                                                 1 	(obj:1)
x70                                                 1 	(obj:1)
x71                                                 1 	(obj:1)
x77                                                 1 	(obj:1)
x78                                                 1 	(obj:1)
x83                                                 1 	(obj:1)
x85                                                 1 	(obj:1)
x86                                                 1 	(obj:1)
x87                                                 1 	(obj:1)
x91                                                 1 	(obj:1)
x92                                                 1 	(obj:1)
x93                                                 1 	(obj:1)
x94                                                 1 	(obj:1)
x96                                                 1 	(obj:1)
x97                                                 1 	(obj:1)
x100                                                1 	(obj:1)
x101                                                1 	(obj:1)
x102                                                1 	(obj:1)
one.thingy.devices[3].thingy.v12_y                   21 	(obj:0)
one.thingy.devices[3].thingy.v12_z                   20 	(obj:0)
$_25__3_y                                          16 	(obj:0)
$_25__3_z                                          17 	(obj:0)
$_23__3_y                                          24 	(obj:0)
$_23__3_z                                           6 	(obj:0)
one.thingy.devices[0].thingy.v0_y                   19 	(obj:0)
one.thingy.devices[0].thingy.v0_z                   23 	(obj:0)
$_20__3_y                                           4 	(obj:0)
$_20__3_z                                          19 	(obj:0)
one.thingy.devices[3].thingy.v0_y                   21 	(obj:0)
one.thingy.devices[3].thingy.v0_z                   17 	(obj:0)
$_24__3_y                                           4 	(obj:0)
$_24__3_z                                           3 	(obj:0)
one.ctrl_s[0].flush_y                              17 	(obj:0)
one.ctrl_s[0].flush_z                              16 	(obj:0)
one.thingy.devices[1].thingy.v12_y                   17 	(obj:0)
one.thingy.devices[1].thingy.v12_z                   23 	(obj:0)
$_18__3_y                                          18 	(obj:0)
$_18__3_z                                          22 	(obj:0)
$_19__3_y                                           3 	(obj:0)
$_19__3_z                                          23 	(obj:0)
one.thingy.devices[1].thingy.v0_y                   17 	(obj:0)
one.thingy.devices[1].thingy.v0_z                   24 	(obj:0)
$_22__3_y                                          17 	(obj:0)
$_22__3_z                                          22 	(obj:0)
one.ctrl_s[0].hole_y                               17 	(obj:0)
one.ctrl_s[0].hole_z                               19 	(obj:0)
one.thingy.devices[0].thingy.v12_y                   20 	(obj:0)
one.thingy.devices[0].thingy.v12_z                   22 	(obj:0)
one.thingy.devices[2].thingy.v12_y                   17 	(obj:0)
one.thingy.devices[2].thingy.v12_z                   21 	(obj:0)
$_21__3_y                                          21 	(obj:0)
$_21__3_z                                           4 	(obj:0)
one.thingy.devices[2].thingy.v0_y                   17 	(obj:0)
one.thingy.devices[2].thingy.v0_z                   20 	(obj:0)
